GeneratedTests/Random_12/Random_12_14.tsp
NAME: Random_12_14
TYPE: TSP
DIMENSION: 12
EDGE_WEIGHT_TYPE: EUC_2D
NODE_COORD_SECTION
1 9.933419 20.094446
2 10.438001 2.866082
3 28.31328 33.475937
4 16.153156 18.5339
5 14.162729 31.29281
6 24.028736 8.714433
7 7.3629 13.989376
8 10.866852 5.84728
9 24.930937 27.31018
10 18.223248 0.19977522
11 35.041447 25.375505
12 4.1538467 3.3312092
EOF
