GeneratedTests/Random_12/Random_12_14.txt
NAME: Random_12_14
TYPE: TSP
DIMENSION: 12
EDGE_WEIGHT_TYPE: EUC_2D
NODE_COORD_SECTION
1 21.28623 26.641981
2 21.815826 24.427628
3 10.572768 19.99722
4 35.098602 25.36026
5 25.174604 20.811958
6 23.014235 2.1323862
7 14.358757 0.81289816
8 9.840308 10.478369
9 17.962894 10.6526165
10 30.646141 6.5446434
11 5.8693514 4.429368
12 10.328118 25.582718
EOF
